src/swarm_exploration/utils/lkh_tsp_solver/resource/expl_2.tsp
NAME : single
TYPE : ATSP
DIMENSION : 5
EDGE_WEIGHT_TYPE : EXPLICIT
EDGE_WEIGHT_FORMAT : FULL_MATRIX
EDGE_WEIGHT_SECTION
0 -100000 0 0 0 
0 0 844 463 0 
0 844 0 316 939 
0 463 316 0 1005 
-100000 0 939 1005 0 
EOF