src/swarm_exploration/utils/lkh_tsp_solver/resource/expl_2.tour
NAME : single.-198282.tour
COMMENT : Length = -198282
COMMENT : Found by LKH [Keld Helsgaun] Mon Apr 21 16:12:36 2025
TYPE : TOUR
DIMENSION : 5
TOUR_SECTION
1
2
4
3
5
-1
EOF
